 vasp.5.4.4.18Apr17-6-g9f103f2a35 (build Apr 22 2022 11:10:59) gamma-only

 executed on             LinuxIFC date 2022.06.05  23:00:53

 INCAR:
 POTCAR:    PAW_PBE C 08Apr2002
 POTCAR:    PAW_PBE N 08Apr2002
 POTCAR:    PAW_PBE Zn 06Sep2000
 POTCAR:    PAW_PBE H 15Jun2001

 POTCAR:    PAW_PBE C 08Apr2002
   VRHFIN =C: s2p2

   TITEL  = PAW_PBE C 08Apr2002
   POMASS =   12.011; ZVAL   =    4.000    mass and valenz
   ENMAX  =  400.000; ENMIN  =  300.000 eV

 POTCAR:    PAW_PBE N 08Apr2002
   VRHFIN =N: s2p3

   TITEL  = PAW_PBE N 08Apr2002
   POMASS =   14.001; ZVAL   =    5.000    mass and valenz
   ENMAX  =  400.000; ENMIN  =  300.000 eV

 POTCAR:    PAW_PBE Zn 06Sep2000
   VRHFIN =Zn: d10 p2

   TITEL  = PAW_PBE Zn 06Sep2000
   POMASS =   65.390; ZVAL   =   12.000    mass and valenz
   ENMAX  =  276.723; ENMIN  =  207.542 eV

 POTCAR:    PAW_PBE H 15Jun2001
   VRHFIN =H: ultrasoft test

   TITEL  = PAW_PBE H 15Jun2001
   POMASS =    1.000; ZVAL   =    1.000    mass and valenz
   ENMAX  =  250.000; ENMIN  =  200.000 eV

 Optimization of the real space projectors (new method)

 maximal supplied QI-value         = 25.13
 optimisation between [QCUT,QGAM] = [ 10.05, 20.36] = [ 28.30,116.06] Ry
 Optimized for a Real-space Cutoff    1.30 Angstroem

   l    n(q)    QCUT    max X(q) W(low)/X(q) W(high)/X(q)  e(spline)
   0      8    10.053   115.676    0.49E-03    0.72E-03    0.18E-06
   0      8    10.053    87.132    0.49E-03    0.71E-03    0.18E-06
   1      7    10.053     4.429    0.32E-03    0.31E-03    0.18E-06
   1      7    10.053     2.733    0.23E-03    0.19E-03    0.20E-06
 Optimization of the real space projectors (new method)

[...]

   l    n(q)    QCUT    max X(q) W(low)/X(q) W(high)/X(q)  e(spline)
   2      7    10.239    46.356    0.21E-03    0.48E-03    0.10E-06
   2      7    10.239    41.843    0.21E-03    0.50E-03    0.10E-06
   0      8    10.239    48.958    0.37E-03    0.79E-04    0.11E-06
   0      8    10.239    32.776    0.35E-03    0.73E-04    0.10E-06
   1      8    10.239    17.787    0.49E-03    0.70E-03    0.14E-06
   1      8    10.239    14.435    0.42E-03    0.61E-03    0.13E-06
 Optimization of the real space projectors (new method)

 maximal supplied QI-value         = 34.20
 optimisation between [QCUT,QGAM] = [  9.92, 20.18] = [ 27.55,114.04] Ry
 Optimized for a Real-space Cutoff    1.26 Angstroem

   l    n(q)    QCUT    max X(q) W(low)/X(q) W(high)/X(q)  e(spline)
   0      8     9.919    19.460    0.50E-03    0.23E-03    0.29E-06
   0      8     9.919    12.209    0.48E-03    0.23E-03    0.28E-06
   1      7     9.919     4.655    0.17E-03    0.75E-03    0.30E-06
  PAW_PBE C 08Apr2002                   :
  PAW_PBE N 08Apr2002                   :
  PAW_PBE Zn 06Sep2000                  :
  PAW_PBE H 15Jun2001                   :

 POSCAR: ZIF-8
  positions in direct lattice
 exchange correlation table for  LEXCH =        8
   RHO(1)=    0.500       N(1)  =     2000
   RHO(2)=  100.500       N(2)  =     4000

 ion  position               nearest neighbor table
   1  0.374  0.896  0.682- 157 1.08  23 1.37  97 1.38
   2  0.626  0.104  0.682- 158 1.08  22 1.37  98 1.38
   3  0.626  0.896  0.318- 159 1.08  21 1.37  99 1.38
   4  0.374  0.104  0.318- 160 1.08  24 1.37 100 1.38
   5  0.682  0.374  0.896- 161 1.08  19 1.37 101 1.38
   6  0.682  0.626  0.104- 162 1.08  18 1.37 102 1.38
   7  0.318  0.626  0.896- 163 1.08  17 1.37 103 1.38
   8  0.318  0.374  0.104- 164 1.08  20 1.37 104 1.38
   9  0.896  0.682  0.374- 165 1.08  15 1.37 105 1.38
  10  0.104  0.682  0.626- 166 1.08  14 1.37 106 1.38
  11  0.896  0.318  0.626- 167 1.08  13 1.37 107 1.38
  12  0.104  0.318  0.374- 168 1.08  16 1.37 108 1.38
  13  0.896  0.374  0.682- 169 1.08  11 1.37 109 1.38
  14  0.104  0.626  0.682- 170 1.08  10 1.37 110 1.38
  15  0.896  0.626  0.318- 171 1.08   9 1.37 111 1.38
  16  0.104  0.374  0.318- 172 1.08  12 1.37 112 1.38
  17  0.374  0.682  0.896- 173 1.08   7 1.37 113 1.38
  18  0.626  0.682  0.104- 174 1.08   6 1.37 114 1.38
  19  0.626  0.318  0.896- 175 1.08   5 1.37 115 1.38
  20  0.374  0.318  0.104- 176 1.08   8 1.37 116 1.38
  21  0.682  0.896  0.374- 177 1.08   3 1.37 117 1.38
  22  0.682  0.104  0.626- 178 1.08   2 1.37 118 1.38
  23  0.318  0.896  0.626- 179 1.08   1 1.37 119 1.38
  24  0.318  0.104  0.374- 180 1.08   4 1.37 120 1.38
  25  0.874  0.396  0.182- 181 1.08  47 1.37 121 1.38
  26  0.126  0.604  0.182- 182 1.08  46 1.37 122 1.38
  27  0.126  0.396  0.818- 183 1.08  45 1.37 123 1.38
  28  0.874  0.604  0.818- 184 1.08  48 1.37 124 1.38
  29  0.182  0.874  0.396- 185 1.08  43 1.37 125 1.38
  30  0.182  0.126  0.604- 186 1.08  42 1.37 126 1.38
  31  0.818  0.126  0.396- 187 1.08  41 1.37 127 1.38
  32  0.818  0.874  0.604- 188 1.08  44 1.37 128 1.38
  33  0.396  0.182  0.874- 189 1.08  39 1.37 129 1.38
  34  0.604  0.182  0.126- 190 1.08  38 1.37 130 1.38
  35  0.396  0.818  0.126- 191 1.08  37 1.37 131 1.38
  36  0.604  0.818  0.874- 192 1.08  40 1.37 132 1.38
  37  0.396  0.874  0.182- 193 1.08  35 1.37 133 1.38
  38  0.604  0.126  0.182- 194 1.08  34 1.37 134 1.38
  39  0.396  0.126  0.818- 195 1.08  33 1.37 135 1.38
  40  0.604  0.874  0.818- 196 1.08  36 1.37 136 1.38
  41  0.874  0.182  0.396- 197 1.08  31 1.37 137 1.38
  42  0.126  0.182  0.604- 198 1.08  30 1.37 138 1.38
  43  0.126  0.818  0.396- 199 1.08  29 1.37 139 1.38
  44  0.874  0.818  0.604- 200 1.08  32 1.37 140 1.38
  45  0.182  0.396  0.874- 201 1.08  27 1.37 141 1.38
  46  0.182  0.604  0.126- 202 1.08  26 1.37 142 1.38
  47  0.818  0.396  0.126- 203 1.08  25 1.37 143 1.38
  48  0.818  0.604  0.874- 204 1.08  28 1.37 144 1.38
  49  0.376  0.009  0.624-  97 1.35 119 1.35  73 1.49
  50  0.624  0.991  0.624-  98 1.35 118 1.35  74 1.49
  51  0.624  0.009  0.376- 117 1.35  99 1.35  75 1.49
  52  0.376  0.991  0.376- 100 1.35 120 1.35  76 1.49
  53  0.624  0.376  0.009- 101 1.35 115 1.35  77 1.49
  54  0.624  0.624  0.991- 102 1.35 114 1.35  78 1.49
  55  0.376  0.624  0.009- 113 1.35 103 1.35  79 1.49
  56  0.376  0.376  0.991- 104 1.35 116 1.35  80 1.49
  57  0.009  0.624  0.376- 105 1.35 111 1.35  81 1.49
  58  0.991  0.624  0.624- 106 1.35 110 1.35  82 1.49
  59  0.009  0.376  0.624- 109 1.35 107 1.35  83 1.49
  60  0.991  0.376  0.376- 108 1.35 112 1.35  84 1.49
[...]
 262  0.914  0.555  0.555-  82 1.10
 263  0.086  0.445  0.555-  83 1.10
 264  0.914  0.445  0.445-  84 1.10
 265  0.945  0.586  0.055-  85 1.10
 266  0.055  0.414  0.055-  86 1.10
 267  0.055  0.586  0.945-  87 1.10
 268  0.945  0.414  0.945-  88 1.10
 269  0.055  0.945  0.586-  89 1.10
 270  0.055  0.055  0.414-  90 1.10
 271  0.945  0.055  0.586-  91 1.10
 272  0.945  0.945  0.414-  92 1.10
 273  0.586  0.055  0.945-  93 1.10
 274  0.414  0.055  0.055-  94 1.10
 275  0.586  0.945  0.055-  95 1.10
 276  0.414  0.945  0.945-  96 1.10

  LATTYP: Found a simple cubic cell.
 ALAT       =    17.1996002197

  Lattice vectors:

 A1 = (  17.1996002197,   0.0000000000,   0.0000000000)
 A2 = (   0.0000000000,  17.1996002197,   0.0000000000)
 A3 = (   0.0000000000,   0.0000000000,  17.1996002197)

Analysis of symmetry for initial positions (statically):
 Subroutine PRICEL returns following result:

  LATTYP: Found a body centered cubic cell.
 ALAT       =    17.1996002197

[...]

   2 primitive cells build up your supercell.

 Routine SETGRP: Setting up the symmetry group for a
 simple cubic supercell.

 Subroutine GETGRP returns: Found 24 space group operations
 (whereof 24 operations were pure point group operations)
 out of a pool of 48 trial point group operations.

The static configuration has the point symmetry T_d .

Analysis of symmetry for dynamics (positions and initial velocities):
 Subroutine PRICEL returns following result:

  LATTYP: Found a body centered cubic cell.
 ALAT       =    17.1996002197

  Lattice vectors:

 A1 = (   8.5998001098,   8.5998001099,   8.5998001099)
 A2 = (   8.5998001098,  -8.5998001098,  -8.5998001098)
 A3 = (  -8.5998001098,   8.5998001098,  -8.5998001099)

   2 primitive cells build up your supercell.

 Routine SETGRP: Setting up the symmetry group for a
 simple cubic supercell.

 Subroutine GETGRP returns: Found 24 space group operations
 (whereof 24 operations were pure point group operations)
 out of a pool of 48 trial point group operations.

The dynamic configuration has the point symmetry T_d .

 Subroutine INISYM returns: Found 24 space group operations
 (whereof 24 operations are pure point group operations),
 and found     2 'primitive' translations

 KPOINTS: Regular k-point mesh

Automatic generation of k-mesh.
Space group operators:
 irot       det(A)        alpha          n_x          n_y          n_z        tau_x        tau_y        tau_z
    1     1.000000     0.000000     1.000000     0.000000     0.000000     0.000000     0.000000     0.000000
    2     1.000000   120.000000    -0.577350    -0.577350    -0.577350     0.000000     0.000000     0.000000
    3     1.000000   120.000000     0.577350     0.577350     0.577350     0.000000     0.000000     0.000000
    4    -1.000000    90.000000     0.000000     0.000000    -1.000000     0.000000     0.000000     0.000000
    5    -1.000000   180.000000     0.000000     0.707107     0.707107     0.000000     0.000000     0.000000
    6    -1.000000    90.000000     0.000000     1.000000     0.000000     0.000000     0.000000     0.000000
    7     1.000000   180.000000     0.000000     0.000000     1.000000     0.000000     0.000000     0.000000
    8     1.000000   120.000000    -0.577350     0.577350     0.577350     0.000000     0.000000     0.000000
    9     1.000000   120.000000    -0.577350     0.577350    -0.577350     0.000000     0.000000     0.000000
   10    -1.000000    90.000000     0.000000     0.000000     1.000000     0.000000     0.000000     0.000000
   11    -1.000000    90.000000    -1.000000     0.000000     0.000000     0.000000     0.000000     0.000000
   12    -1.000000   180.000000     0.707107     0.000000     0.707107     0.000000     0.000000     0.000000
   13     1.000000   120.000000     0.577350    -0.577350     0.577350     0.000000     0.000000     0.000000
   14     1.000000   120.000000    -0.577350    -0.577350     0.577350     0.000000     0.000000     0.000000
   15     1.000000   180.000000     1.000000     0.000000     0.000000     0.000000     0.000000     0.000000
   16    -1.000000    90.000000     0.000000    -1.000000     0.000000     0.000000     0.000000     0.000000
   17    -1.000000   180.000000     0.707107     0.707107     0.000000     0.000000     0.000000     0.000000
   18    -1.000000    90.000000     1.000000     0.000000     0.000000     0.000000     0.000000     0.000000
   19     1.000000   120.000000     0.577350    -0.577350    -0.577350     0.000000     0.000000     0.000000
   20     1.000000   180.000000     0.000000     1.000000     0.000000     0.000000     0.000000     0.000000
   21     1.000000   120.000000     0.577350     0.577350    -0.577350     0.000000     0.000000     0.000000
   22    -1.000000   180.000000     0.000000    -0.707107     0.707107     0.000000     0.000000     0.000000
[...]
     0.000000000  0.000000000 17.199600220     0.000000000  0.000000000  0.058140886

  length of vectors
    17.199600220 17.199600220 17.199600220     0.058140886  0.058140886  0.058140886

 FORCES acting on ions
    electron-ion (+dipol)            ewald-force                    non-local-force                 convergence-correction
   0.601E+02 0.287E+03 -.974E+02   -.618E+02 -.291E+03 0.979E+02   0.172E+01 0.467E+01 -.555E+00   -.429E-05 -.284E-04 -.113E-04
   -.601E+02 -.287E+03 -.974E+02   0.618E+02 0.291E+03 0.979E+02   -.172E+01 -.467E+01 -.555E+00   0.429E-05 0.284E-04 -.112E-04
   -.601E+02 0.287E+03 0.974E+02   0.618E+02 -.291E+03 -.979E+02   -.172E+01 0.467E+01 0.555E+00   0.429E-05 -.284E-04 0.113E-04
   0.601E+02 -.287E+03 0.974E+02   -.618E+02 0.291E+03 -.979E+02   0.172E+01 -.467E+01 0.555E+00   -.429E-05 0.284E-04 0.113E-04
   -.974E+02 0.601E+02 0.287E+03   0.979E+02 -.618E+02 -.291E+03   -.555E+00 0.172E+01 0.467E+01   -.113E-04 -.429E-05 -.284E-04
   -.974E+02 -.601E+02 -.287E+03   0.979E+02 0.618E+02 0.291E+03   -.555E+00 -.172E+01 -.467E+01   -.112E-04 0.429E-05 0.284E-04
   0.974E+02 -.601E+02 0.287E+03   -.979E+02 0.618E+02 -.291E+03   0.555E+00 -.172E+01 0.467E+01   0.113E-04 0.429E-05 -.284E-04
   0.974E+02 0.601E+02 -.287E+03   -.979E+02 -.618E+02 0.291E+03   0.555E+00 0.172E+01 -.467E+01   0.113E-04 -.429E-05 0.284E-04
   0.287E+03 -.974E+02 0.601E+02   -.291E+03 0.979E+02 -.618E+02   0.467E+01 -.555E+00 0.172E+01   -.284E-04 -.113E-04 -.429E-05
   -.287E+03 -.974E+02 -.601E+02   0.291E+03 0.979E+02 0.618E+02   -.467E+01 -.555E+00 -.172E+01   0.284E-04 -.112E-04 0.429E-05
   0.287E+03 0.974E+02 -.601E+02   -.291E+03 -.979E+02 0.618E+02   0.467E+01 0.555E+00 -.172E+01   -.284E-04 0.113E-04 0.429E-05
   -.287E+03 0.974E+02 0.601E+02   0.291E+03 -.979E+02 -.618E+02   -.467E+01 0.555E+00 0.172E+01   0.284E-04 0.113E-04 -.429E-05
   0.287E+03 0.601E+02 -.974E+02   -.291E+03 -.618E+02 0.979E+02   0.467E+01 0.172E+01 -.555E+00   -.284E-04 -.429E-05 -.113E-04
   -.287E+03 -.601E+02 -.974E+02   0.291E+03 0.618E+02 0.979E+02   -.467E+01 -.172E+01 -.555E+00   0.284E-04 0.431E-05 -.113E-04
   0.287E+03 -.601E+02 0.974E+02   -.291E+03 0.618E+02 -.979E+02   0.467E+01 -.172E+01 0.555E+00   -.284E-04 0.429E-05 0.113E-04
   -.287E+03 0.601E+02 0.974E+02   0.291E+03 -.618E+02 -.979E+02   -.467E+01 0.172E+01 0.555E+00   0.284E-04 -.429E-05 0.113E-04
   0.601E+02 -.974E+02 0.287E+03   -.618E+02 0.979E+02 -.291E+03   0.172E+01 -.555E+00 0.467E+01   -.429E-05 -.113E-04 -.284E-04
   -.601E+02 -.974E+02 -.287E+03   0.618E+02 0.979E+02 0.291E+03   -.172E+01 -.555E+00 -.467E+01   0.431E-05 -.113E-04 0.284E-04
   -.601E+02 0.974E+02 0.287E+03   0.618E+02 -.979E+02 -.291E+03   -.172E+01 0.555E+00 0.467E+01   0.429E-05 0.113E-04 -.284E-04
   0.601E+02 0.974E+02 -.287E+03   -.618E+02 -.979E+02 0.291E+03   0.172E+01 0.555E+00 -.467E+01   -.429E-05 0.113E-04 0.284E-04
   -.974E+02 0.287E+03 0.601E+02   0.979E+02 -.291E+03 -.618E+02   -.555E+00 0.467E+01 0.172E+01   -.113E-04 -.284E-04 -.429E-05
   -.974E+02 -.287E+03 -.601E+02   0.979E+02 0.291E+03 0.618E+02   -.555E+00 -.467E+01 -.172E+01   -.113E-04 0.284E-04 0.431E-05
   0.974E+02 0.287E+03 -.601E+02   -.979E+02 -.291E+03 0.618E+02   0.555E+00 0.467E+01 -.172E+01   0.113E-04 -.284E-04 0.429E-05
   0.974E+02 -.287E+03 0.601E+02   -.979E+02 0.291E+03 -.618E+02   0.555E+00 -.467E+01 0.172E+01   0.113E-04 0.284E-04 -.429E-05
   0.601E+02 0.287E+03 -.974E+02   -.618E+02 -.291E+03 0.979E+02   0.172E+01 0.467E+01 -.555E+00   -.430E-05 -.284E-04 -.113E-04
   -.601E+02 -.287E+03 -.974E+02   0.618E+02 0.291E+03 0.979E+02   -.172E+01 -.467E+01 -.555E+00   0.428E-05 0.284E-04 -.113E-04
   -.601E+02 0.287E+03 0.974E+02   0.618E+02 -.291E+03 -.979E+02   -.172E+01 0.467E+01 0.555E+00   0.430E-05 -.284E-04 0.113E-04
   0.601E+02 -.287E+03 0.974E+02   -.618E+02 0.291E+03 -.979E+02   0.172E+01 -.467E+01 0.555E+00   -.430E-05 0.284E-04 0.113E-04
   -.974E+02 0.601E+02 0.287E+03   0.979E+02 -.618E+02 -.291E+03   -.555E+00 0.172E+01 0.467E+01   -.113E-04 -.430E-05 -.284E-04
   -.974E+02 -.601E+02 -.287E+03   0.979E+02 0.618E+02 0.291E+03   -.555E+00 -.172E+01 -.467E+01   -.113E-04 0.428E-05 0.284E-04
   0.974E+02 -.601E+02 0.287E+03   -.979E+02 0.618E+02 -.291E+03   0.555E+00 -.172E+01 0.467E+01   0.113E-04 0.430E-05 -.284E-04
   0.974E+02 0.601E+02 -.287E+03   -.979E+02 -.618E+02 0.291E+03   0.555E+00 0.172E+01 -.467E+01   0.113E-04 -.430E-05 0.284E-04
   0.287E+03 -.974E+02 0.601E+02   -.291E+03 0.979E+02 -.618E+02   0.467E+01 -.555E+00 0.172E+01   -.284E-04 -.113E-04 -.430E-05
   -.287E+03 -.974E+02 -.601E+02   0.291E+03 0.979E+02 0.618E+02   -.467E+01 -.555E+00 -.172E+01   0.284E-04 -.113E-04 0.428E-05
   0.287E+03 0.974E+02 -.601E+02   -.291E+03 -.979E+02 0.618E+02   0.467E+01 0.555E+00 -.172E+01   -.284E-04 0.113E-04 0.430E-05
   -.287E+03 0.974E+02 0.601E+02   0.291E+03 -.979E+02 -.618E+02   -.467E+01 0.555E+00 0.172E+01   0.284E-04 0.113E-04 -.430E-05
   0.287E+03 0.601E+02 -.974E+02   -.291E+03 -.618E+02 0.979E+02   0.467E+01 0.172E+01 -.555E+00   -.284E-04 -.429E-05 -.113E-04
   -.287E+03 -.601E+02 -.974E+02   0.291E+03 0.618E+02 0.979E+02   -.467E+01 -.172E+01 -.555E+00   0.284E-04 0.429E-05 -.113E-04
   0.287E+03 -.601E+02 0.974E+02   -.291E+03 0.618E+02 -.979E+02   0.467E+01 -.172E+01 0.555E+00   -.284E-04 0.429E-05 0.113E-04
   -.287E+03 0.601E+02 0.974E+02   0.291E+03 -.618E+02 -.979E+02   -.467E+01 0.172E+01 0.555E+00   0.284E-04 -.429E-05 0.113E-04
   0.601E+02 -.974E+02 0.287E+03   -.618E+02 0.979E+02 -.291E+03   0.172E+01 -.555E+00 0.467E+01   -.429E-05 -.113E-04 -.284E-04
   -.601E+02 -.974E+02 -.287E+03   0.618E+02 0.979E+02 0.291E+03   -.172E+01 -.555E+00 -.467E+01   0.429E-05 -.113E-04 0.284E-04
   -.601E+02 0.974E+02 0.287E+03   0.618E+02 -.979E+02 -.291E+03   -.172E+01 0.555E+00 0.467E+01   0.429E-05 0.113E-04 -.284E-04
   0.601E+02 0.974E+02 -.287E+03   -.618E+02 -.979E+02 0.291E+03   0.172E+01 0.555E+00 -.467E+01   -.429E-05 0.113E-04 0.284E-04
   -.974E+02 0.287E+03 0.601E+02   0.979E+02 -.291E+03 -.618E+02   -.555E+00 0.467E+01 0.172E+01   -.113E-04 -.284E-04 -.429E-05
   -.974E+02 -.287E+03 -.601E+02   0.979E+02 0.291E+03 0.618E+02   -.555E+00 -.467E+01 -.172E+01   -.113E-04 0.284E-04 0.429E-05
   0.974E+02 0.287E+03 -.601E+02   -.979E+02 -.291E+03 0.618E+02   0.555E+00 0.467E+01 -.172E+01   0.113E-04 -.284E-04 0.429E-05
   0.974E+02 -.287E+03 0.601E+02   -.979E+02 0.291E+03 -.618E+02   0.555E+00 -.467E+01 0.172E+01   0.113E-04 0.284E-04 -.429E-05
   0.420E+01 -.122E+03 -.420E+01   -.323E+01 0.126E+03 0.323E+01   -.967E+00 -.400E+01 0.967E+00   -.547E-05 0.742E-05 0.548E-05
   -.420E+01 0.122E+03 -.420E+01   0.323E+01 -.126E+03 0.323E+01   0.967E+00 0.400E+01 0.967E+00   0.547E-05 -.743E-05 0.549E-05
   -.420E+01 -.122E+03 0.420E+01   0.323E+01 0.126E+03 -.323E+01   0.967E+00 -.400E+01 -.967E+00   0.547E-05 0.742E-05 -.547E-05
   0.420E+01 0.122E+03 0.420E+01   -.323E+01 -.126E+03 -.323E+01   -.967E+00 0.400E+01 -.967E+00   -.547E-05 -.743E-05 -.547E-05
   -.420E+01 0.420E+01 -.122E+03   0.323E+01 -.323E+01 0.126E+03   0.967E+00 -.967E+00 -.400E+01   0.548E-05 -.547E-05 0.742E-05
   -.420E+01 -.420E+01 0.122E+03   0.323E+01 0.323E+01 -.126E+03   0.967E+00 0.967E+00 0.400E+01   0.549E-05 0.547E-05 -.743E-05
   0.420E+01 -.420E+01 -.122E+03   -.323E+01 0.323E+01 0.126E+03   -.967E+00 0.967E+00 -.400E+01   -.547E-05 0.547E-05 0.742E-05
   0.420E+01 0.420E+01 0.122E+03   -.323E+01 -.323E+01 -.126E+03   -.967E+00 -.967E+00 0.400E+01   -.547E-05 -.547E-05 -.743E-05
   -.122E+03 -.420E+01 0.420E+01   0.126E+03 0.323E+01 -.323E+01   -.400E+01 0.967E+00 -.967E+00   0.742E-05 0.548E-05 -.547E-05
   0.122E+03 -.420E+01 -.420E+01   -.126E+03 0.323E+01 0.323E+01   0.400E+01 0.967E+00 0.967E+00   -.743E-05 0.549E-05 0.547E-05
   -.122E+03 0.420E+01 -.420E+01   0.126E+03 -.323E+01 0.323E+01   -.400E+01 -.967E+00 0.967E+00   0.742E-05 -.547E-05 0.547E-05
   0.122E+03 0.420E+01 0.420E+01   -.126E+03 -.323E+01 -.323E+01   0.400E+01 -.967E+00 -.967E+00   -.743E-05 -.547E-05 -.547E-05
[...]
   -.485E+02 -.425E+02 0.425E+02   0.483E+02 0.464E+02 -.464E+02   0.170E+00 -.386E+01 0.386E+01   0.903E-05 -.542E-06 0.543E-06
   0.485E+02 -.425E+02 -.425E+02   -.483E+02 0.464E+02 0.464E+02   -.170E+00 -.386E+01 -.386E+01   -.903E-05 -.543E-06 -.545E-06
   -.425E+02 -.485E+02 0.425E+02   0.464E+02 0.483E+02 -.464E+02   -.386E+01 0.170E+00 0.386E+01   -.546E-06 0.903E-05 0.544E-06
   0.425E+02 0.485E+02 0.425E+02   -.464E+02 -.483E+02 -.464E+02   0.386E+01 -.170E+00 0.386E+01   0.542E-06 -.903E-05 0.544E-06
   0.425E+02 -.485E+02 -.425E+02   -.464E+02 0.483E+02 0.464E+02   0.386E+01 0.170E+00 -.386E+01   0.542E-06 0.903E-05 -.544E-06
   -.425E+02 0.485E+02 -.425E+02   0.464E+02 -.483E+02 0.464E+02   -.386E+01 -.170E+00 -.386E+01   -.546E-06 -.903E-05 -.543E-06
   0.425E+02 -.425E+02 -.485E+02   -.464E+02 0.464E+02 0.483E+02   0.386E+01 -.386E+01 0.170E+00   0.544E-06 -.546E-06 0.903E-05
   0.425E+02 0.425E+02 0.485E+02   -.464E+02 -.464E+02 -.483E+02   0.386E+01 0.386E+01 -.170E+00   0.544E-06 0.542E-06 -.903E-05
   -.425E+02 0.425E+02 -.485E+02   0.464E+02 -.464E+02 0.483E+02   -.386E+01 0.386E+01 0.170E+00   -.544E-06 0.542E-06 0.903E-05
   -.425E+02 -.425E+02 0.485E+02   0.464E+02 0.464E+02 -.483E+02   -.386E+01 -.386E+01 -.170E+00   -.543E-06 -.546E-06 -.903E-05
   -.485E+02 0.425E+02 -.425E+02   0.483E+02 -.464E+02 0.464E+02   0.170E+00 0.386E+01 -.386E+01   0.903E-05 0.544E-06 -.546E-06
   0.485E+02 0.425E+02 0.425E+02   -.483E+02 -.464E+02 -.464E+02   -.170E+00 0.386E+01 0.386E+01   -.903E-05 0.544E-06 0.542E-06
   -.485E+02 -.425E+02 0.425E+02   0.483E+02 0.464E+02 -.464E+02   0.170E+00 -.386E+01 0.386E+01   0.903E-05 -.544E-06 0.542E-06
   0.485E+02 -.425E+02 -.425E+02   -.483E+02 0.464E+02 0.464E+02   -.170E+00 -.386E+01 -.386E+01   -.903E-05 -.543E-06 -.546E-06
   -.257E-03 -.257E-03 -.257E-03   -.291E-11 -.152E-11 -.274E-11   0.249E-13 -.218E-13 -.533E-14   0.996E-07 0.996E-07 0.996E-07

 POSITION                                       TOTAL-FORCE (eV/Angst)
      6.43781     15.40998     11.73305        -0.005447      0.022154     -0.012568
     10.76179      1.78962     11.73305         0.005447     -0.022154     -0.012568
     10.76179     15.40998      5.46655         0.005447      0.022154      0.012568
      6.43781      1.78962      5.46655        -0.005447     -0.022154      0.012568
     11.73305      6.43781     15.40998        -0.012568     -0.005447      0.022154
     11.73305     10.76179      1.78962        -0.012568      0.005447     -0.022154
      5.46655     10.76179     15.40998         0.012568      0.005447      0.022154
      5.46655      6.43781      1.78962         0.012568     -0.005447     -0.022154
     15.40998     11.73305      6.43781         0.022154     -0.012568     -0.005447
      1.78962     11.73305     10.76179        -0.022154     -0.012568      0.005447
     15.40998      5.46655     10.76179         0.022154      0.012568      0.005447
      1.78962      5.46655      6.43781        -0.022154      0.012568     -0.005447
     15.40998      6.43781     11.73305         0.022154     -0.005447     -0.012568
      1.78962     10.76179     11.73305        -0.022154      0.005447     -0.012568
     15.40998     10.76179      5.46655         0.022154      0.005447      0.012568
      1.78962      6.43781      5.46655        -0.022154     -0.005447      0.012568
      6.43781     11.73305     15.40998        -0.005447     -0.012568      0.022154
     10.76179     11.73305      1.78962         0.005447     -0.012568     -0.022154
     10.76179      5.46655     15.40998         0.005447      0.012568      0.022154
      6.43781      5.46655      1.78962        -0.005447      0.012568     -0.022154
     11.73305     15.40998      6.43781        -0.012568      0.022154     -0.005447
     11.73305      1.78962     10.76179        -0.012568     -0.022154      0.005447
      5.46655     15.40998     10.76179         0.012568      0.022154      0.005447
      5.46655      1.78962      6.43781         0.012568     -0.022154     -0.005447
     15.03761      6.81018      3.13325        -0.005447      0.022154     -0.012568
      2.16199     10.38942      3.13325         0.005447     -0.022154     -0.012568
      2.16199      6.81018     14.06635         0.005447      0.022154      0.012568
     15.03761     10.38942     14.06635        -0.005447     -0.022154      0.012568
      3.13325     15.03761      6.81018        -0.012568     -0.005447      0.022154
      3.13325      2.16199     10.38942        -0.012568      0.005447     -0.022154
     14.06635      2.16199      6.81018         0.012568      0.005447      0.022154
     14.06635     15.03761     10.38942         0.012568     -0.005447     -0.022154
      6.81018      3.13325     15.03761         0.022154     -0.012568     -0.005447
     10.38942      3.13325      2.16199        -0.022154     -0.012568      0.005447
      6.81018     14.06635      2.16199         0.022154      0.012568      0.005447
     10.38942     14.06635     15.03761        -0.022154      0.012568     -0.005447
      6.81018     15.03761      3.13325         0.022154     -0.005447     -0.012568
     10.38942      2.16199      3.13325        -0.022154      0.005447     -0.012568
      6.81018      2.16199     14.06635         0.022154      0.005447      0.012568
     10.38942     15.03761     14.06635        -0.022154     -0.005447      0.012568
     15.03761      3.13325      6.81018        -0.005447     -0.012568      0.022154
      2.16199      3.13325     10.38942         0.005447     -0.012568     -0.022154
      2.16199     14.06635      6.81018         0.005447      0.012568      0.022154
     15.03761     14.06635     10.38942        -0.005447      0.012568     -0.022154
      3.13325      6.81018     15.03761        -0.012568      0.022154     -0.005447
      3.13325     10.38942      2.16199        -0.012568     -0.022154      0.005447
     14.06635      6.81018      2.16199         0.012568      0.022154      0.005447
     14.06635     10.38942     15.03761         0.012568     -0.022154     -0.005447
      6.46206      0.15411     10.73754         0.003502      0.016616     -0.003502
     10.73754     17.04549     10.73754        -0.003502     -0.016616     -0.003502
     10.73754      0.15411      6.46206        -0.003502      0.016616      0.003502
      6.46206     17.04549      6.46206         0.003502     -0.016616      0.003502
     10.73754      6.46206      0.15411        -0.003502      0.003502      0.016616
     10.73754     10.73754     17.04549        -0.003502     -0.003502     -0.016616
      6.46206     10.73754      0.15411         0.003502     -0.003502      0.016616
      6.46206      6.46206     17.04549         0.003502      0.003502     -0.016616
      0.15411     10.73754      6.46206         0.016616     -0.003502      0.003502
     17.04549     10.73754     10.73754        -0.016616     -0.003502     -0.003502
      0.15411      6.46206     10.73754         0.016616      0.003502     -0.003502
     17.04549      6.46206      6.46206        -0.016616      0.003502      0.003502
[...]
     15.72061      9.53907      9.53907         0.002228     -0.032201     -0.032201
      1.47899      7.66053      9.53907        -0.002228      0.032201     -0.032201
     15.72061      7.66053      7.66053         0.002228      0.032201      0.032201
     16.26033     10.07879      0.93927         0.032201     -0.002228     -0.032201
      0.93927      7.12081      0.93927        -0.032201      0.002228     -0.032201
      0.93927     10.07879     16.26033        -0.032201     -0.002228      0.032201
     16.26033      7.12081     16.26033         0.032201      0.002228      0.032201
      0.93927     16.26033     10.07879        -0.032201      0.032201     -0.002228
      0.93927      0.93927      7.12081        -0.032201     -0.032201      0.002228
     16.26033      0.93927     10.07879         0.032201     -0.032201     -0.002228
     16.26033     16.26033      7.12081         0.032201      0.032201      0.002228
     10.07879      0.93927     16.26033        -0.002228     -0.032201      0.032201
      7.12081      0.93927      0.93927         0.002228     -0.032201     -0.032201
     10.07879     16.26033      0.93927        -0.002228      0.032201     -0.032201
      7.12081     16.26033     16.26033         0.002228      0.032201      0.032201
    total drift:                               -0.000257     -0.000257     -0.000257

  FREE ENERGIE OF THE ION-ELECTRON SYSTEM (eV)
  free  energy   TOTEN  =     -1740.68011920 eV

  energy  without entropy=    -1740.68011920  energy(sigma->0) =    -1740.68011920