 vasp.5.4.4.18Apr17-6-g9f103f2a35 (build Oct 14 2019 14:20:28) complex

 executed on             LinuxIFC date 2021.07.29  13:46:46

 INCAR:
 POTCAR:    PAW_PBE C 08Apr2002

 POTCAR:    PAW_PBE C 08Apr2002
   VRHFIN =C: s2p2

   TITEL  = PAW_PBE C 08Apr2002
   POMASS =   12.011; ZVAL   =    4.000    mass and valenz
   ENMAX  =  400.000; ENMIN  =  300.000 eV

 Optimization of the real space projectors (new method)

 maximal supplied QI-value         = 25.13
 optimisation between [QCUT,QGAM] = [ 14.83, 29.66] = [ 61.58,246.30] Ry
 Optimized for a Real-space Cutoff    0.95 Angstroem

   l    n(q)    QCUT    max X(q) W(low)/X(q) W(high)/X(q)  e(spline)
   0      8    14.829   115.676    0.23E-03    0.28E-03    0.19E-06
   0      8    14.829    87.132    0.23E-03    0.28E-03    0.19E-06
   1      8    14.829     4.429    0.37E-03    0.62E-04    0.11E-06
   1      8    14.829     2.733    0.29E-03    0.50E-04    0.10E-06
  PAW_PBE C 08Apr2002                   :

 POSCAR: Si
  positions in direct lattice
 exchange correlation table for  LEXCH =        8
   RHO(1)=    0.500       N(1)  =     2000
   RHO(2)=  100.500       N(2)  =     4000

 ion  position               nearest neighbor table
   1  0.997  0.008  0.508-   4 1.35  20 1.40  43 1.45
   2  0.095  0.172  0.513-   3 1.43   4 1.45   7 1.47
   3  0.995  0.227  0.510-  18 1.41   2 1.43  21 1.44
   4  0.092  0.059  0.508-   1 1.35   2 1.45   5 1.51
   5  0.199  0.004  0.497-  47 1.34   8 1.39   4 1.51
   6  0.305  0.162  0.499-  11 1.37   8 1.40   7 1.49
   7  0.201  0.221  0.499-   2 1.47  25 1.48   6 1.49
   8  0.298  0.054  0.505-   5 1.39   6 1.40   9 1.42
   9  0.399  0.001  0.506-   8 1.42  51 1.47  12 1.48
  10  0.505  0.166  0.501-  15 1.39  12 1.44  11 1.48
  11  0.399  0.220  0.497-   6 1.37  29 1.44  10 1.48
  12  0.506  0.054  0.504-  10 1.44  13 1.48   9 1.48
  13  0.606  0.991  0.506-  55 1.36  16 1.42  12 1.48
  14  0.700  0.162  0.490-  15 1.40  19 1.43  16 1.49
  15  0.604  0.219  0.497-  10 1.39  14 1.40  33 1.47
  16  0.706  0.046  0.500-  17 1.32  13 1.42  14 1.49
  17  0.795  0.988  0.501-  16 1.32  59 1.45  20 1.47
  18  0.898  0.169  0.506-   3 1.41  19 1.47  20 1.50
  19  0.793  0.224  0.505-  37 1.38  14 1.43  18 1.47
  20  0.894  0.053  0.501-   1 1.40  17 1.47  18 1.50
  21  0.993  0.339  0.499-  40 1.34  24 1.34   3 1.44
  22  0.099  0.496  0.488-  24 1.40  23 1.40  27 1.47
  23  0.003  0.555  0.488-  22 1.40  41 1.43  38 1.45
  24  0.088  0.387  0.491-  21 1.34  22 1.40  25 1.55
  25  0.202  0.336  0.492-  28 1.39   7 1.48  24 1.55
  26  0.293  0.507  0.493-  27 1.36  31 1.43  28 1.47
  27  0.197  0.556  0.505-  26 1.36  22 1.47  45 1.49
  28  0.298  0.393  0.488-  25 1.39  29 1.44  26 1.47
  29  0.396  0.331  0.491-  11 1.44  28 1.44  32 1.47
  30  0.498  0.492  0.496-  32 1.39  35 1.45  31 1.45
  31  0.398  0.553  0.497-  26 1.43  30 1.45  49 1.48
  32  0.502  0.384  0.497-  30 1.39  33 1.42  29 1.47
  33  0.604  0.333  0.503-  32 1.42  36 1.46  15 1.47
  34  0.700  0.509  0.497-  35 1.37  36 1.45  39 1.46
  35  0.598  0.550  0.488-  34 1.37  53 1.42  30 1.45
  36  0.701  0.396  0.495-  34 1.45  33 1.46  37 1.53
  37  0.805  0.329  0.494-  19 1.38  40 1.39  36 1.53
  38  0.900  0.502  0.495-  39 1.39  23 1.45  40 1.47
  39  0.806  0.560  0.502-  38 1.39  57 1.40  34 1.46
  40  0.898  0.388  0.503-  21 1.34  37 1.39  38 1.47
  41  0.002  0.664  0.504-  60 1.41  44 1.41  23 1.43
  42  0.101  0.838  0.516-  43 1.45  44 1.46  47 1.49
  43  0.999  0.895  0.513-  58 1.33   1 1.45  42 1.45
  44  0.097  0.725  0.509-  45 1.40  41 1.41  42 1.46
  45  0.196  0.672  0.502-  44 1.40  48 1.48  27 1.49
  46  0.299  0.841  0.483-  51 1.40  48 1.41  47 1.46
  47  0.198  0.899  0.494-   5 1.34  46 1.46  42 1.49
  48  0.297  0.732  0.491-  46 1.41  45 1.48  49 1.54
  49  0.403  0.668  0.496-  52 1.39  31 1.48  48 1.54
  50  0.507  0.824  0.510-  52 1.38  55 1.46  51 1.57
  51  0.398  0.886  0.501-  46 1.40   9 1.47  50 1.57
  52  0.502  0.718  0.497-  50 1.38  49 1.39  53 1.39
  53  0.598  0.661  0.494-  52 1.39  35 1.42  56 1.43
  54  0.707  0.831  0.498-  59 1.38  56 1.46  55 1.46
  55  0.607  0.885  0.515-  13 1.36  50 1.46  54 1.46
  56  0.698  0.717  0.497-  53 1.43  54 1.46  57 1.50
  57  0.808  0.669  0.503-  39 1.40  60 1.42  56 1.50
  58  0.906  0.843  0.506-  43 1.33  59 1.33  60 1.51
  59  0.805  0.878  0.513-  58 1.33  54 1.38  17 1.45
  60  0.907  0.725  0.504-  41 1.41  57 1.42  58 1.51

  LATTYP: Found a simple orthorhombic cell.
 ALAT       =    12.3242000000
 B/A-ratio  =     1.0392317554
 C/A-ratio  =     1.6228233881

  Lattice vectors:

 A1 = (  12.3242000000,   0.0000000000,   0.0000000000)
 A2 = (   0.0000000000,  12.8077000000,   0.0000000000)
 A3 = (   0.0000000000,   0.0000000000,  20.0000000000)

Analysis of symmetry for initial positions (statically):
 Subroutine PRICEL returns:
 Original cell was already a primitive cell.

 Routine SETGRP: Setting up the symmetry group for a
 simple orthorhombic supercell.

 Subroutine GETGRP returns: Found  1 space group operations
 (whereof  1 operations were pure point group operations)
 out of a pool of  8 trial point group operations.

The static configuration has the point symmetry C_1 .

Analysis of symmetry for dynamics (positions and initial velocities):
 Subroutine PRICEL returns:
 Original cell was already a primitive cell.

 Routine SETGRP: Setting up the symmetry group for a
 simple orthorhombic supercell.

 Subroutine GETGRP returns: Found  1 space group operations
 (whereof  1 operations were pure point group operations)
 out of a pool of  8 trial point group operations.

The dynamic configuration has the point symmetry C_1 .

 Subroutine INISYM returns: Found  1 space group operations
 (whereof  1 operations are pure point group operations),
 and found     1 'primitive' translations

 KPOINTS: Generate k-mesh automatically

Automatic generation of k-mesh.
Space group operators:
 irot       det(A)        alpha          n_x          n_y          n_z        tau_x        tau_y        tau_z
    1     1.000000     0.000000     1.000000     0.000000     0.000000     0.000000     0.000000     0.000000

 Subroutine IBZKPT returns following result:

 Found     10 irreducible k-points:

 Following reciprocal coordinates:
            Coordinates               Weight
  0.000000  0.000000  0.000000      1.000000
  0.250000  0.000000  0.000000      2.000000
  0.500000  0.000000  0.000000      1.000000
  0.000000  0.250000  0.000000      2.000000
  0.250000  0.250000  0.000000      2.000000
  0.500000  0.250000  0.000000      2.000000
 -0.250000  0.250000  0.000000      2.000000
  0.000000  0.500000  0.000000      1.000000
  0.250000  0.500000  0.000000      2.000000
  0.500000  0.500000  0.000000      1.000000

 Following cartesian coordinates:
            Coordinates               Weight
  0.000000  0.000000  0.000000      1.000000
  0.020285  0.000000  0.000000      2.000000
  0.040571  0.000000  0.000000      1.000000
  0.000000  0.019520  0.000000      2.000000
  0.020285  0.019520  0.000000      2.000000
  0.040571  0.019520  0.000000      2.000000
 -0.020285  0.019520  0.000000      2.000000
  0.000000  0.039039  0.000000      1.000000
  0.020285  0.039039  0.000000      2.000000
  0.040571  0.039039  0.000000      1.000000

 SYSTEM =  unknown system
 POSCAR =  Si

 Startparameter for this run:
   NWRITE =      2    write-flag & timer
   PREC   = normal    normal or accurate (medium, high low for compatibility)
   ISTART =      0    job   : 0-new  1-cont  2-samecut
   ICHARG =      2    charge: 1-file 2-atom 10-const
   ISPIN  =      1    spin polarized calculation?
   LNONCOLLINEAR =      F non collinear calculations
   LSORBIT =      F    spin-orbit coupling
   INIWAV =      1    electr: 0-lowe 1-rand  2-diag
   LASPH  =      F    aspherical Exc in radial PAW
   METAGGA=      F    non-selfconsistent MetaGGA calc.

 Electronic Relaxation 1
   ENCUT  =  850.0 eV  62.47 Ry    7.90 a.u.  29.30 30.45 47.54*2*pi/ulx,y,z
   ENINI  =  850.0     initial cutoff
   ENAUG  =  644.9 eV  augmentation charge cutoff
   NELM   =    120;   NELMIN=  2; NELMDL= -5     # of ELM steps
   EDIFF  = 0.1E-07   stopping-criterion for ELM
   LREAL  =      T    real-space projection
   NLSPLINE    = F    spline interpolate recip. space projectors
   LCOMPAT=      F    compatible to vasp.4.4
   GGA_COMPAT  = T    GGA compatible to vasp.4.4-vasp.4.6
   LMAXPAW     = -100 max onsite density
   LMAXMIX     =    2 max onsite mixed and CHGCAR
   VOSKOWN=      0    Vosko Wilk Nusair interpolation
   ROPT   =   -0.00050
 Ionic relaxation
   EDIFFG = -.1E-04   stopping-criterion for IOM
   NSW    =      1    number of steps for IOM
   NBLOCK =      1;   KBLOCK =      1    inner block; outer block
   IBRION =     -1    ionic relax: 0-MD 1-quasi-New 2-CG
   NFREE  =      0    steps in history (QN), initial steepest desc. (CG)
   ISIF   =      2    stress and relaxation
   IWAVPR =     10    prediction:  0-non 1-charg 2-wave 3-comb
   ISYM   =      2    0-nonsym 1-usesym 2-fastsym
   LCORR  =      T    Harris-Foulkes like correction to forces

   POTIM  = 0.5000    time-step for ionic-motion
   TEIN   =    0.0    initial temperature
   TEBEG  =    0.0;   TEEND  =   0.0 temperature during run
   SMASS  =  -3.00    Nose mass-parameter (am)
   estimated Nose-frequenzy (Omega)   =  0.10E-29 period in steps =****** mass=  -0.347E-26a.u.
   SCALEE = 1.0000    scale energy and forces
   NPACO  =    256;   APACO  = 16.0  distance and # of slots for P.C.
   PSTRESS=    0.0 pullay stress

  Mass of Ions in am
   POMASS =  12.01
  Ionic Valenz
   ZVAL   =   4.00
  Atomic Wigner-Seitz radii
  virtual crystal weights
   VCA    =   1.00
   NELECT =     240.0000    total number of electrons
   NUPDOWN=      -1.0000    fix difference up-down

 DOS related values:
   EMIN   =  10.00;   EMAX   =-10.00  energy-range for DOS
   EFERMI =   0.00
   ISMEAR =     0;   SIGMA  =   0.05  broadening in eV -4-tet -1-fermi 0-gaus

 Electronic relaxation 2 (details)
   IALGO  =     38    algorithm
   LDIAG  =      T    sub-space diagonalisation (order eigenvalues)
   LSUBROT=      F    optimize rotation matrix (better conditioning)
   TURBO    =      0    0=normal 1=particle mesh
   IRESTART =      0    0=no restart 2=restart with 2 vectors
   NREBOOT  =      0    no. of reboots
   NMIN     =      0    reboot dimension
   EREF     =   0.00    reference energy to select bands
   IMIX   =      4    mixing-type and parameters
     AMIX     =   0.40;   BMIX     =  1.00
     AMIX_MAG =   1.60;   BMIX_MAG =  1.00
     AMIN     =   0.10
     WC   =   100.;   INIMIX=   1;  MIXPRE=   1;  MAXMIX= -45

 Intra band minimization:
   WEIMIN = 0.0000     energy-eigenvalue tresh-hold
   EBREAK =  0.15E-10  absolut break condition
   DEPER  =   0.30     relativ break condition

   TIME   =   0.40     timestep for ELM

  volume/ion in A,a.u.               =      52.61       355.06
  Fermi-wavevector in a.u.,A,eV,Ry     =   0.693519  1.310562  6.543983  0.480969
  Thomas-Fermi vector in A             =   1.775756

 Write flags
   LWAVE        =      F    write WAVECAR
   LDOWNSAMPLE  =      F    k-point downsampling of WAVECAR
[...]
   C          32.949          3.389         10.090          0.841
   C          33.063          3.391         10.108          0.842
   C          32.685          3.384         10.050          0.837
   C          33.048          3.391         10.106          0.842
   C          33.270          3.394         10.139          0.845
   C          32.799          3.386         10.067          0.839
   C          33.323          3.395         10.147          0.846
   C          33.606          3.400         10.190          0.849
   C          33.430          3.397         10.164          0.847
   C          33.248          3.394         10.136          0.845
   C          33.776          3.403         10.216          0.851
   C          33.567          3.399         10.185          0.849
   C          33.474          3.398         10.170          0.848
   C          33.742          3.402         10.211          0.851
   C          33.108          3.392         10.115          0.843
   C          32.920          3.388         10.086          0.840
   C          33.089          3.391         10.112          0.843
   C          33.244          3.394         10.135          0.845
   C          33.228          3.394         10.133          0.844
   C          33.193          3.393         10.128          0.844
   C          32.551          3.382         10.029          0.836
   C          32.548          3.382         10.029          0.836
   C          32.979          3.389         10.095          0.841

  IVDW = 202
  VDW_RADIUS =    50.000 A
  VDW_SR =     0.830
  VDW_D =     6.000
  SCSRAD =   120.000 A
  LSCSGRAD = T
  LSCALER0 = T
  Edisp (eV):   -4.91168

  FORCE on cell =-STRESS in cart. coord.  units (eV):
  Direction    XX          YY          ZZ          XY          YZ          ZX
  Alpha Z    93.67697    93.67697    93.67697
  Ewald   46652.29234 46562.68358-54535.36346    50.12571    12.65154     9.18533
  Hartree 45706.33521 45690.19685-45305.69951     2.71968     3.87085     4.12150
  E(xc)    -889.25014  -889.45583  -921.78956     0.18419     0.01744     0.02356
  Local  -94926.60234-94840.03548 96784.04874   -42.46473   -14.61884   -12.51548
  n-local  -206.07198  -206.65063  -187.50254     0.94490    -0.16028     0.10066
  augment   -22.91893   -22.73948   -21.19640    -0.07583    -0.01271    -0.00509
  Kinetic  3602.98702  3610.43874  4085.66921   -11.97662     0.44676    -0.75950
  Fock        0.00000     0.00000     0.00000     0.00000     0.00000     0.00000
  vdW        -5.86294    -5.87258     0.05468    -0.00547    -0.00371    -0.00246
  Total       4.58521    -7.75787    -8.10187    -0.54815     2.19104     0.14852
  in kB       2.32707    -3.93725    -4.11184    -0.27820     1.11199     0.07538

 VOLUME and BASIS-vectors are now :
  energy-cutoff  :      850.00
  volume of cell :     3156.89
      direct lattice vectors                 reciprocal lattice vectors
    12.324200000  0.000000000  0.000000000     0.081141169  0.000000000  0.000000000
     0.000000000 12.807700000  0.000000000     0.000000000  0.078078031  0.000000000
     0.000000000  0.000000000 20.000000000     0.000000000  0.000000000  0.050000000

  length of vectors
    12.324200000 12.807700000 20.000000000     0.081141169  0.078078031  0.050000000

 FORCES acting on ions
    electron-ion (+dipol)            ewald-force                    non-local-force                 convergence-correction
   0.697E+00 0.655E+00 -.319E+02   -.232E+01 -.193E+01 0.320E+02   0.203E-01 -.205E+01 -.236E+00   0.106E-06 -.490E-06 -.176E-06
   -.184E+02 -.113E+02 -.955E+02   0.193E+02 0.111E+02 0.956E+02   0.693E+00 -.502E+00 -.216E+01   0.661E-06 -.268E-06 -.147E-06
   -.905E+01 -.216E+01 -.682E+02   0.938E+01 0.245E+01 0.682E+02   0.224E+00 -.903E+00 -.580E+00   0.121E-06 -.858E-06 0.223E-06
   -.267E+02 -.681E+01 -.353E+02   0.294E+02 0.847E+01 0.353E+02   0.147E+01 0.679E+00 0.590E-01   0.964E-06 -.176E-06 -.349E-06
   0.140E+02 -.240E+02 0.449E+02   -.160E+02 0.262E+02 -.451E+02   -.679E+00 0.777E-01 0.185E+01   0.361E-06 -.452E-06 -.342E-06
   0.106E+02 -.764E+01 0.126E+02   -.125E+02 0.792E+01 -.127E+02   -.213E+01 0.109E+01 0.687E+00   0.242E-06 -.387E-06 -.303E-06
   -.168E+01 0.263E+00 0.163E+02   0.212E+01 0.403E+00 -.167E+02   -.249E+00 0.955E+00 0.114E+01   0.252E-06 -.281E-06 -.193E-06
   -.469E+01 -.133E+00 -.472E+02   0.557E+01 0.258E+00 0.478E+02   0.123E+01 0.586E+00 -.191E+01   0.239E-06 -.232E-06 -.510E-06
   -.160E+02 0.160E+01 -.402E+02   0.173E+02 -.250E+01 0.401E+02   0.476E+00 -.893E+00 -.148E+00   -.695E-06 -.837E-07 -.584E-06
   0.145E+02 -.131E+01 -.109E+02   -.156E+02 0.102E+01 0.109E+02   -.899E+00 -.669E+00 -.381E+00   -.397E-06 -.430E-06 -.291E-06
   -.134E+02 -.451E+01 0.849E+01   0.150E+02 0.515E+01 -.833E+01   0.608E+00 0.104E+00 -.356E+00   -.297E-06 -.259E-06 -.296E-06
   0.274E+01 0.801E+01 -.135E+02   -.281E+01 -.850E+01 0.137E+02   -.119E+01 -.246E+00 0.451E+00   -.398E-06 0.233E-06 -.436E-06
   0.255E+02 -.147E+02 -.170E+02   -.264E+02 0.169E+02 0.161E+02   -.123E+01 0.169E+01 0.141E+01   0.196E-06 -.467E-06 -.286E-06
   -.156E+01 0.167E+02 0.101E+03   0.229E+01 -.176E+02 -.102E+03   0.566E+00 0.380E+00 0.409E+01   -.477E-06 -.133E-06 -.142E-06
   0.354E+01 -.136E+02 0.151E+02   -.338E+01 0.146E+02 -.150E+02   -.380E+00 0.362E+00 -.186E+00   -.199E-06 -.284E-06 -.975E-07
   0.145E+02 -.324E+02 0.997E+01   -.170E+02 0.345E+02 -.933E+01   -.205E+01 0.474E+00 -.179E+01   -.823E-06 -.309E-06 -.590E-07
   -.159E+02 0.214E+01 0.286E+02   0.187E+02 -.359E+01 -.287E+02   0.267E+01 0.290E+01 0.166E+01   0.115E-06 -.445E-06 -.150E-06
   0.552E+01 0.118E+02 -.240E+02   -.715E+01 -.128E+02 0.236E+02   -.653E+00 -.875E+00 0.647E+00   -.619E-07 0.253E-06 0.594E-07
   0.105E+02 0.861E+01 -.606E+02   -.101E+02 -.106E+02 0.619E+02   0.268E+01 -.506E+00 -.387E+01   -.385E-07 -.338E-06 0.239E-06
   0.142E+02 -.156E+02 0.309E+02   -.153E+02 0.165E+02 -.310E+02   0.149E+01 0.118E+01 0.123E+01   -.302E-07 -.705E-06 -.129E-06
   -.105E+02 0.185E+02 0.650E+01   0.102E+02 -.210E+02 -.659E+01   0.147E+01 -.166E+01 0.123E+01   0.236E-06 -.502E-06 0.242E-06
   -.235E+02 -.544E+01 0.773E+02   0.243E+02 0.587E+01 -.775E+02   -.969E+00 0.184E+01 0.177E+01   0.641E-06 0.421E-06 0.400E-06
   0.211E+01 -.974E+01 0.958E+02   -.267E+01 0.923E+01 -.962E+02   -.159E+01 0.433E+00 0.224E+01   0.298E-06 0.190E-06 0.167E-06
   -.326E+02 0.174E+02 0.524E+02   0.366E+02 -.178E+02 -.523E+02   0.315E+01 0.131E+01 -.289E+00   0.126E-05 0.223E-06 0.170E-06
   0.122E+02 0.691E+01 0.369E+02   -.141E+02 -.832E+01 -.365E+02   -.171E+01 -.120E+01 -.330E+00   0.938E-06 0.645E-07 0.707E-07
   -.113E+02 0.164E+01 0.432E+02   0.129E+02 -.208E+01 -.442E+02   0.233E+01 -.276E+01 0.203E+01   -.280E-07 -.178E-06 -.510E-07
   0.856E+01 -.112E+02 -.872E+02   -.102E+02 0.125E+02 0.888E+02   0.220E+00 0.617E+00 -.452E+01   0.530E-06 0.593E-06 0.235E-06
   -.113E+02 -.698E+01 0.659E+02   0.118E+02 0.810E+01 -.661E+02   -.437E+00 -.135E+01 0.431E+00   -.174E-06 -.489E-07 0.764E-07
   0.622E+00 -.217E+01 0.467E+02   0.976E-01 0.241E+01 -.466E+02   0.948E+00 0.236E+00 0.590E+00   -.343E-06 -.203E-06 -.135E-06
   0.102E+02 -.665E+01 0.292E+00   -.104E+02 0.691E+01 -.394E-01   0.491E+00 0.176E+01 -.102E+01   -.266E-06 0.385E-06 -.107E-06
   -.132E+01 -.316E+01 -.144E+02   0.104E+01 0.399E+01 0.146E+02   0.470E-01 0.119E+01 -.110E+01   0.353E-06 0.434E-06 -.226E-06
   0.921E+01 0.142E+02 -.671E+00   -.102E+02 -.155E+02 0.470E+00   -.998E+00 0.870E+00 0.345E+00   -.286E-07 0.130E-06 -.207E-06
   -.496E+01 0.529E+01 -.513E+02   0.630E+01 -.525E+01 0.517E+02   -.753E+00 -.758E-01 -.239E+01   -.307E-06 0.188E-06 -.237E-07
   -.136E+02 0.248E+01 0.167E+01   0.153E+02 -.355E+01 -.105E+01   0.673E+00 -.318E+01 -.103E+01   -.305E-06 0.102E-06 0.115E-06
   0.171E+02 0.659E+01 0.843E+02   -.191E+02 -.634E+01 -.850E+02   0.596E+00 0.169E+01 0.270E+01   -.434E-06 0.189E-06 -.123E-06
   -.573E+01 0.279E+01 0.312E+02   0.702E+01 -.330E+01 -.315E+02   -.442E+00 -.194E+01 0.106E+01   -.665E-06 0.332E-06 0.893E-07
   0.201E+02 -.787E+01 0.597E+02   -.226E+02 0.956E+01 -.609E+02   -.226E+01 0.226E+01 0.333E+01   -.519E-06 -.467E-06 -.124E-07
   -.925E+00 0.635E+01 0.296E+02   0.179E+01 -.723E+01 -.300E+02   0.194E+00 -.228E+00 0.841E+00   0.225E-06 0.317E-06 0.246E-06
   0.121E+02 0.936E+01 -.366E+02   -.125E+02 -.921E+01 0.369E+02   -.137E+01 -.447E+00 -.120E+01   -.937E-06 0.311E-06 0.355E-06
   0.193E+02 -.213E+02 -.532E+02   -.210E+02 0.237E+02 0.543E+02   0.337E+00 0.663E+00 -.327E+01   -.483E-06 0.189E-06 0.575E-06
   -.425E+01 0.100E+02 -.313E+02   0.386E+01 -.103E+02 0.319E+02   0.389E+00 0.177E+01 -.130E+01   0.634E-06 0.106E-05 0.338E-06
   -.214E+02 0.429E+01 -.115E+03   0.219E+02 -.391E+01 0.116E+03   -.890E+00 0.132E+00 -.356E+01   0.517E-06 -.220E-06 -.276E-06
   -.263E+02 -.503E+01 -.643E+02   0.298E+02 0.693E+01 0.645E+02   0.389E+00 -.195E+00 -.222E+00   0.538E-06 0.299E-06 -.137E-06
   -.464E+01 -.920E+01 -.540E+02   0.478E+01 0.999E+01 0.535E+02   0.113E+01 0.251E+00 0.599E+00   0.492E-06 -.206E-07 -.142E-06
   -.218E+02 0.710E+01 -.159E+02   0.228E+02 -.728E+01 0.152E+02   0.757E+00 -.619E+00 0.633E+00   0.129E-06 0.427E-06 -.199E-06
   0.418E+01 -.218E+01 0.143E+03   -.486E+01 0.273E+01 -.144E+03   0.876E-01 -.147E+01 0.330E+01   0.301E-06 -.550E-08 -.779E-07
   0.810E+01 0.253E+02 0.619E+02   -.896E+01 -.280E+02 -.618E+02   0.359E+00 -.215E+01 0.819E+00   0.689E-06 0.140E-06 -.506E-06
   -.571E+01 0.179E+02 0.556E+02   0.592E+01 -.197E+02 -.551E+02   0.313E+00 -.236E+01 0.216E+00   -.303E-07 0.701E-06 -.249E-06
   0.267E+02 0.300E+01 0.101E+02   -.290E+02 -.365E+01 -.101E+02   -.873E+00 -.148E+00 -.574E+00   0.492E-06 0.436E-06 -.249E-06
   0.193E+02 -.202E+02 -.757E+02   -.204E+02 0.224E+02 0.758E+02   -.159E+01 0.198E+01 -.105E+01   0.927E-07 -.800E-06 -.520E-06
   -.280E+02 0.615E+01 -.165E+02   0.305E+02 -.554E+01 0.174E+02   0.852E+00 0.763E+00 -.974E+00   -.101E-05 -.336E-06 -.600E-06
   0.863E+01 -.292E+01 0.267E+02   -.875E+01 0.299E+01 -.273E+02   0.175E-01 0.216E+00 0.141E+01   -.318E-06 0.417E-06 -.155E-06
   -.309E+01 0.179E+01 0.251E+02   0.360E+01 -.262E+01 -.248E+02   0.127E+01 0.128E+01 -.946E+00   -.572E-06 0.656E-06 -.347E-07
   0.157E+02 0.816E+01 0.626E+02   -.178E+02 -.984E+01 -.641E+02   -.977E+00 -.167E+01 0.452E+01   -.783E-06 -.996E-07 -.305E-06
   0.165E+02 0.142E+02 -.120E+03   -.163E+02 -.162E+02 0.121E+03   -.734E+00 -.926E+00 -.361E+01   0.357E-07 -.332E-06 -.325E-06
   -.367E-01 0.580E+01 0.306E+02   0.107E+01 -.541E+01 -.303E+02   0.171E+01 0.638E+00 -.254E-01   -.176E-06 0.209E-06 -.959E-07
   0.105E+02 -.113E+02 -.225E+02   -.117E+02 0.125E+02 0.222E+02   -.146E+01 -.431E+00 -.576E+00   -.530E-06 0.881E-06 0.134E-06
   -.905E+01 0.227E+02 0.318E+01   0.978E+01 -.261E+02 -.445E+01   -.886E+00 -.424E+01 0.224E+01   0.394E-07 -.195E-06 -.333E-06
   0.106E+02 0.442E+01 -.103E+03   -.123E+02 -.338E+01 0.105E+03   -.880E+00 0.390E+01 -.515E+01   -.581E-06 0.127E-06 0.281E-06
   -.129E+01 -.120E+02 -.115E+02   0.159E+01 0.137E+02 0.115E+02   -.944E+00 -.122E+01 0.277E+00   -.129E-07 0.184E-06 0.130E-07
   -.679E+00 0.701E+00 0.903E+00   0.284E-13 -.206E-12 -.551E-13   0.632E+00 -.647E+00 -.918E+00   -.220E-06 0.870E-07 -.555E-05

 POSITION                                       TOTAL-FORCE (eV/Angst)
     12.28668      0.09962     10.16775        -1.595581     -3.327110     -0.178131
      1.17135      2.19893     10.26654         1.611434     -0.721599     -2.069711
     12.26047      2.90757     10.20411         0.559925     -0.601171     -0.567453
      1.13647      0.75674     10.16315         4.153449      2.333176      0.048865
      2.44761      0.04765      9.94452        -2.755031      2.331470      1.714578
      3.76053      2.08112      9.97480        -4.065853      1.360559      0.578754
      2.47227      2.82593      9.97046         0.190482      1.613402      0.728528
      3.66967      0.69105     10.10702         2.090985      0.715300     -1.349656
      4.91847      0.01049     10.11875         1.772944     -1.787812     -0.228051
      6.22866      2.12487     10.01102        -2.003629     -0.951139     -0.350404
      4.92106      2.81348      9.94209         2.153721      0.751374     -0.200393
      6.23405      0.68804     10.07248        -1.261349     -0.744539      0.579784
      7.47258     12.68967     10.11006        -2.136606      3.846947      0.557953
      8.62084      2.07044      9.79648         1.290976     -0.554477      2.623132
      7.44047      2.80315      9.93968        -0.210213      1.358174     -0.090896
      8.70132      0.59235     10.00067        -4.556134      2.664955     -1.157945
      9.79947     12.65948     10.01077         5.442717      1.454013      1.579988
     11.06540      2.16674     10.11492        -2.283022     -1.870117      0.213008
      9.76988      2.86284     10.10064         3.003823     -2.518821     -2.605196
     11.02109      0.67377     10.01711         0.359213      2.134480      1.101997
     12.24015      4.33564      9.98530         1.213187     -4.169553      1.139196
      1.21942      6.34811      9.76963        -0.195059      2.258588      1.562649
      0.04225      7.10873      9.76138        -2.140923     -0.069333      1.861833
      1.08668      4.96041      9.82406         7.084435      0.872366     -0.163818
      2.48871      4.30327      9.83609        -3.617109     -2.606326      0.125773
      3.60617      6.49741      9.85036         3.903973     -3.191137      1.008245
      2.42559      7.11515     10.10607        -1.459313      1.997209     -2.934917
      3.67391      5.03151      9.75958         0.050569     -0.220572      0.296950
      4.88169      4.24333      9.82105         1.665276      0.466385      0.697941
      6.13608      6.30755      9.91578         0.291537      2.015643     -0.765984
      4.91039      7.08510      9.94972        -0.236942      2.018805     -0.850936
      6.18677      4.91672      9.93741        -2.025834     -0.449151      0.143562
      7.43910      4.26623     10.05208         0.579486     -0.041475     -1.943277
      8.62460      6.52356      9.93097         2.364865     -4.231857     -0.406820
      7.37252      7.04698      9.76460        -1.339720      1.942645      1.953235
      8.64320      5.06992      9.89460         0.853168     -2.440905      0.772097
      9.91544      4.21510      9.88222        -4.769863      3.945730      2.110270
     11.09131      6.42483      9.90629         1.043479     -1.111659      0.383037
      9.92874      7.17364     10.04582        -1.761494     -0.307540     -0.987361
     11.06647      4.96714     10.06601        -1.407820      3.067904     -2.126261
      0.02284      8.50364     10.08011        -0.009866      1.507703     -0.772693
      1.24394     10.73385     10.31542        -0.442500      0.510733     -2.983925
     12.31282     11.46049     10.25120         3.889424      1.699573     -0.022594
      1.19993      9.28116     10.17438         1.255757      1.033420      0.107073
      2.41994      8.60668     10.03513         1.770157     -0.795004     -0.056320
      3.68361     10.77742      9.66705        -0.599324     -0.927872      2.417350
      2.43866     11.51549      9.87884        -0.505826     -4.791719      0.927866
      3.66568      9.37685      9.81732         0.523997     -4.154483      0.763680
      4.96197      8.56001      9.91668        -3.240308     -0.805394     -0.569449
      6.25105     10.55620     10.19580        -2.598646      4.135665     -0.942181
      4.90577     11.35265     10.02477         3.326174      1.366613     -0.072620
      6.19243      9.20170      9.93265        -0.100435      0.287396      0.761869
      7.36581      8.46019      9.88858         1.776995      0.443574     -0.632954
      8.71329     10.63969      9.96296        -3.049762     -3.351673      3.037442
      7.47527     11.33940     10.30890        -0.556410     -2.878691     -2.639948
      8.59815      9.18516      9.93301         2.729516      1.034333      0.339754
      9.95789      8.56839     10.06021        -2.644081      0.764005     -0.871460
     11.16899     10.80037     10.12267        -0.152182     -7.647307      0.975312
      9.91961     11.24048     10.25757        -2.590387      4.915202     -2.825066
     11.17503      9.29044     10.08472        -0.640440      0.421097      0.254696
    total drift:                               -0.047135      0.053725     -0.014961

  FREE ENERGIE OF THE ION-ELECTRON SYSTEM (eV)
  free  energy   TOTEN  =      -548.56580798 eV

  energy  without entropy=     -548.56580798  energy(sigma->0) =     -548.56580798